42331
19,107,120,121,170,236,314,390,421,473,644,669,672,737,830,937,1022,1116,1143,1258,1276,1342,1361,1457,1500,1507,1592,1624,1638,1702,1729,1858,1874,1896,1908,1976,2144,2170,2216,2236,2287,2297,2317,2422,2455,2504,2510,2516,2589,2727,2744,2763,2804,2896,3032,3092,3108,3184,3216,3248,3277,3297,3350,3391,3400,3450,3562,3631,3672,3739,3742,3851,3882,4015,4031,4131,4152,4183,4512,4614,4700,4852,4874,4920
